c User generated cnf file
p cnf 13 28
12 6 -1 0 
7 -4 11 0 
12 -13 8 0 
-12 8 8 0 
-11 12 3 0 
12 10 -5 0 
-7 2 6 0 
13 7 -13 0 
-6 7 5 0 
10 9 -4 0 
-10 5 8 0 
-5 5 5 0 
7 6 -9 0 
-3 6 8 0 
11 9 -2 0 
3 7 -9 0 
3 2 -7 0 
-6 7 1 0 
9 2 -6 0 
-5 10 7 0 
-6 9 12 0 
-2 1 9 0 
8 13 -12 0 
3 12 -1 0 
5 10 -12 0 
8 -3 4 0 
-10 3 13 0 
10 2 -8 0 
